p edge 239 787
e 1 5
e 1 21
e 1 30
e 1 60
e 1 89
e 1 149
e 1 203
e 2 4
e 2 10
e 2 22
e 2 28
e 2 31
e 2 32
e 2 39
e 2 51
e 2 56
e 2 62
e 2 64
e 2 68
e 2 70
e 2 73
e 2 76
e 2 111
e 2 116
e 2 140
e 2 144
e 2 154
e 2 180
e 2 181
e 2 197
e 2 201
e 3 14
e 3 23
e 3 26
e 3 32
e 3 43
e 3 44
e 3 46
e 3 50
e 3 89
e 3 125
e 3 137
e 3 154
e 3 162
e 3 176
e 3 179
e 3 202
e 3 205
e 4 7
e 4 8
e 4 9
e 4 16
e 4 50
e 4 60
e 4 73
e 4 79
e 4 89
e 4 116
e 4 118
e 4 154
e 4 172
e 4 206
e 5 15
e 5 26
e 5 58
e 5 152
e 5 186
e 5 187
e 5 194
e 5 203
e 5 212
e 5 213
e 5 226
e 6 8
e 6 29
e 6 34
e 6 38
e 6 54
e 6 59
e 6 62
e 6 93
e 6 99
e 6 101
e 6 125
e 6 208
e 7 16
e 7 35
e 7 41
e 7 46
e 7 50
e 7 54
e 7 73
e 7 82
e 7 83
e 7 104
e 7 127
e 7 156
e 7 206
e 8 27
e 8 28
e 8 32
e 8 34
e 8 37
e 8 54
e 8 118
e 9 13
e 9 16
e 9 17
e 9 29
e 9 36
e 9 61
e 9 85
e 9 89
e 9 112
e 9 172
e 10 38
e 10 51
e 10 54
e 10 70
e 10 83
e 10 122
e 10 184
e 10 221
e 11 13
e 11 14
e 11 23
e 11 25
e 11 44
e 11 54
e 11 63
e 11 88
e 11 94
e 11 98
e 11 102
e 11 135
e 11 199
e 12 72
e 12 74
e 12 159
e 12 186
e 13 17
e 13 36
e 13 44
e 13 88
e 13 108
e 13 112
e 13 171
e 13 199
e 14 18
e 14 21
e 14 29
e 14 34
e 14 37
e 14 69
e 14 93
e 14 99
e 14 102
e 14 154
e 15 16
e 15 26
e 15 37
e 15 46
e 15 65
e 15 67
e 15 85
e 16 20
e 16 26
e 16 28
e 16 35
e 16 50
e 16 52
e 16 76
e 16 80
e 16 89
e 16 137
e 16 140
e 16 144
e 16 172
e 16 206
e 17 28
e 17 36
e 17 42
e 17 65
e 17 69
e 17 72
e 17 74
e 17 76
e 17 170
e 17 209
e 18 24
e 18 25
e 18 34
e 18 40
e 18 69
e 18 78
e 18 79
e 18 93
e 18 99
e 18 102
e 18 119
e 18 125
e 19 24
e 19 30
e 19 31
e 19 37
e 19 39
e 19 41
e 19 48
e 19 57
e 19 58
e 19 66
e 19 71
e 19 74
e 19 85
e 19 194
e 20 38
e 20 52
e 20 55
e 20 76
e 20 90
e 20 94
e 20 117
e 20 140
e 20 144
e 20 183
e 20 224
e 21 24
e 21 29
e 21 30
e 21 31
e 21 39
e 21 48
e 21 75
e 21 93
e 21 99
e 22 30
e 22 31
e 22 36
e 22 39
e 22 48
e 22 57
e 22 62
e 22 164
e 22 181
e 22 193
e 23 25
e 23 43
e 23 44
e 23 92
e 23 98
e 23 102
e 23 124
e 23 162
e 23 176
e 23 202
e 24 27
e 24 29
e 24 67
e 24 74
e 24 78
e 24 93
e 24 99
e 24 102
e 24 129
e 24 192
e 25 36
e 25 98
e 25 119
e 25 128
e 25 135
e 25 148
e 25 153
e 25 185
e 25 199
e 25 210
e 26 46
e 26 50
e 26 58
e 26 82
e 26 137
e 26 178
e 26 194
e 27 37
e 27 93
e 27 131
e 27 134
e 27 138
e 27 139
e 27 214
e 28 34
e 28 52
e 28 64
e 29 40
e 29 61
e 29 85
e 29 93
e 29 99
e 29 125
e 29 152
e 30 31
e 30 32
e 30 39
e 30 48
e 30 120
e 30 178
e 30 193
e 31 39
e 31 48
e 31 60
e 31 62
e 31 138
e 31 139
e 31 181
e 31 219
e 32 43
e 32 49
e 32 56
e 32 84
e 32 103
e 32 115
e 32 145
e 32 201
e 33 45
e 33 56
e 33 97
e 33 109
e 33 130
e 33 160
e 33 185
e 33 200
e 33 222
e 34 42
e 34 54
e 34 69
e 34 80
e 34 91
e 34 104
e 34 107
e 34 121
e 34 215
e 35 41
e 35 46
e 35 72
e 35 80
e 35 90
e 35 113
e 35 126
e 35 137
e 35 156
e 35 182
e 36 76
e 36 122
e 36 164
e 36 209
e 37 41
e 37 71
e 37 131
e 37 134
e 38 90
e 38 112
e 38 122
e 38 134
e 39 48
e 39 53
e 39 62
e 39 136
e 39 181
e 39 188
e 39 193
e 40 47
e 40 79
e 40 91
e 40 93
e 40 99
e 40 171
e 41 46
e 41 71
e 41 82
e 42 63
e 42 65
e 42 71
e 42 72
e 42 74
e 42 80
e 42 87
e 42 91
e 42 104
e 42 170
e 43 44
e 43 102
e 43 123
e 44 109
e 44 124
e 44 179
e 44 195
e 44 199
e 45 56
e 45 81
e 45 109
e 45 114
e 45 177
e 45 233
e 46 50
e 46 52
e 46 65
e 46 89
e 46 132
e 46 137
e 46 205
e 47 61
e 47 64
e 47 68
e 47 75
e 47 92
e 47 101
e 47 110
e 47 171
e 48 57
e 48 128
e 48 138
e 48 139
e 48 219
e 49 55
e 49 84
e 49 95
e 49 103
e 49 115
e 49 116
e 49 123
e 49 145
e 49 155
e 50 121
e 50 133
e 50 137
e 50 149
e 50 206
e 51 59
e 51 68
e 51 83
e 51 86
e 52 76
e 52 126
e 52 131
e 52 132
e 52 140
e 52 144
e 52 150
e 52 151
e 52 223
e 53 62
e 53 70
e 53 142
e 53 147
e 53 162
e 53 181
e 53 196
e 54 63
e 54 101
e 55 84
e 55 116
e 55 117
e 55 155
e 55 224
e 56 84
e 56 111
e 56 115
e 56 123
e 56 160
e 56 168
e 56 169
e 56 201
e 57 145
e 58 59
e 58 66
e 58 70
e 58 74
e 58 108
e 58 152
e 58 172
e 58 194
e 58 216
e 59 70
e 59 208
e 59 220
e 60 79
e 61 68
e 61 85
e 62 147
e 62 181
e 63 175
e 63 227
e 63 228
e 64 104
e 64 173
e 65 67
e 65 72
e 65 74
e 65 170
e 66 74
e 66 156
e 66 174
e 66 182
e 66 194
e 67 72
e 67 81
e 67 85
e 68 129
e 68 173
e 69 77
e 70 98
e 70 106
e 70 196
e 71 77
e 71 82
e 71 87
e 71 91
e 71 157
e 71 189
e 72 74
e 72 113
e 72 126
e 72 170
e 73 83
e 73 116
e 73 127
e 73 142
e 73 154
e 74 170
e 74 194
e 75 101
e 75 110
e 76 122
e 76 140
e 76 144
e 76 209
e 77 87
e 77 91
e 77 120
e 77 157
e 78 102
e 78 107
e 78 125
e 79 93
e 79 99
e 79 133
e 80 87
e 80 91
e 80 104
e 80 137
e 80 149
e 80 189
e 82 137
e 82 178
e 82 189
e 83 127
e 83 196
e 84 103
e 84 115
e 84 116
e 84 123
e 84 145
e 86 146
e 86 197
e 88 94
e 88 135
e 89 172
e 89 205
e 90 113
e 90 150
e 90 151
e 90 156
e 90 182
e 90 239
e 91 104
e 91 157
e 92 164
e 93 99
e 93 125
e 94 135
e 94 154
e 94 183
e 95 97
e 95 100
e 95 123
e 96 217
e 96 225
e 96 232
e 97 100
e 97 160
e 97 200
e 98 106
e 98 135
e 98 148
e 98 153
e 98 199
e 99 125
e 99 133
e 100 229
e 103 105
e 103 115
e 103 142
e 103 145
e 103 163
e 103 195
e 105 124
e 105 142
e 105 157
e 106 198
e 107 121
e 107 215
e 108 171
e 108 172
e 108 216
e 109 195
e 110 126
e 110 150
e 110 151
e 110 174
e 110 218
e 111 114
e 111 117
e 111 163
e 111 180
e 111 197
e 111 207
e 112 134
e 113 126
e 113 165
e 113 175
e 114 117
e 114 128
e 114 155
e 114 163
e 114 207
e 114 233
e 115 145
e 115 160
e 115 168
e 115 169
e 116 154
e 117 128
e 117 155
e 117 163
e 117 207
e 117 224
e 120 178
e 121 133
e 121 215
e 124 157
e 124 211
e 126 150
e 126 151
e 126 174
e 126 218
e 126 223
e 127 146
e 127 196
e 127 198
e 127 204
e 128 135
e 128 148
e 128 163
e 128 185
e 128 207
e 129 158
e 129 161
e 129 192
e 130 141
e 130 161
e 130 187
e 130 234
e 130 235
e 130 236
e 130 237
e 130 238
e 131 132
e 131 134
e 131 214
e 132 144
e 134 214
e 135 148
e 135 153
e 135 185
e 135 199
e 136 143
e 136 159
e 136 188
e 137 178
e 138 139
e 138 219
e 139 219
e 140 144
e 141 158
e 141 161
e 141 187
e 141 231
e 141 234
e 141 235
e 141 236
e 141 237
e 141 238
e 142 162
e 142 181
e 143 159
e 143 193
e 145 148
e 146 184
e 146 197
e 146 198
e 146 201
e 146 204
e 148 153
e 148 185
e 149 189
e 150 151
e 150 174
e 150 218
e 150 223
e 150 239
e 151 174
e 151 218
e 151 223
e 151 239
e 153 167
e 153 168
e 153 169
e 153 199
e 156 182
e 158 161
e 158 192
e 160 167
e 160 168
e 160 169
e 160 200
e 161 187
e 161 192
e 161 234
e 161 235
e 161 236
e 161 237
e 161 238
e 162 176
e 162 181
e 162 202
e 163 195
e 163 207
e 165 175
e 166 190
e 166 191
e 167 168
e 167 169
e 167 177
e 167 230
e 168 169
e 168 177
e 169 177
e 172 216
e 174 218
e 176 202
e 179 202
e 180 197
e 184 201
e 184 204
e 186 203
e 186 226
e 187 234
e 187 235
e 187 236
e 187 237
e 187 238
e 190 191
e 198 204
e 200 222
e 201 204
e 203 226
e 212 213
e 227 228
e 234 235
e 234 236
e 234 237
e 234 238
e 235 236
e 235 237
e 235 238
e 236 237
e 236 238
e 237 238
